<number of tasks>
35

<cycle time>
69

<task times>
1 29
2 3
3 5
4 22
5 6
6 14
7 2
8 5
9 22
10 30
11 23
12 30
13 23
14 2
15 19
16 29
17 2
18 2
19 19
20 29
21 6
22 10
23 16
24 23
25 5
26 5
27 5
28 40
29 2
30 5
31 5
32 1
33 40
34 2
35 2

<precedence relations>
1,2
1,5
1,10
1,12
2,3
3,4
4,11
5,6
6,7
6,8
7,14
7,18
8,9
9,13
10,14
11,28
11,33
12,18
13,28
13,33
14,15
15,16
16,21
17,20
18,19
19,20
20,21
21,22
21,25
21,30
22,23
23,24
24,27
25,26
26,27
27,28
27,33
27,34
28,29
30,31
31,32
32,33
33,35

<setup times forward>
1,10:5
1,12:5
2,9:2
2,10:5
2,12:5
2,13:1
2,14:5
2,15:2
2,16:2
2,18:5
2,19:2
2,20:2
2,21:2
2,22:2
2,23:3
2,25:3
2,26:3
2,30:4
2,31:4
2,32:4
2,34:4
3,4:1
3,9:2
3,10:5
3,12:5
3,13:1
3,14:5
3,15:2
3,16:2
3,18:5
3,19:2
3,20:2
3,21:2
3,22:2
3,23:3
3,25:3
3,26:3
3,30:4
3,31:4
3,32:4
3,34:4
4,5:1
4,6:1
4,7:1
4,8:1
4,9:1
4,10:4
4,12:4
4,14:4
4,15:3
4,16:1
4,17:1
4,18:4
4,19:3
4,20:3
4,21:1
4,22:1
4,23:4
4,24:1
4,25:4
4,26:4
4,27:1
4,30:5
4,31:5
4,32:5
4,34:5
5,4:1
5,10:5
5,11:1
5,12:5
6,4:1
6,10:5
6,11:1
6,12:5
7,4:1
7,9:2
7,10:5
7,11:1
7,12:5
7,13:1
7,14:5
7,18:5
8,4:1
8,9:2
8,10:5
8,11:1
8,12:5
8,14:5
8,15:2
8,16:2
8,18:5
8,19:2
8,20:2
8,21:2
8,22:2
8,23:3
8,25:3
8,26:3
8,30:4
8,31:4
8,32:4
8,34:4
9,2:2
9,3:2
9,4:1
9,7:2
9,10:3
9,11:1
9,12:3
9,13:1
9,14:3
9,15:4
9,17:2
9,18:3
9,19:4
9,20:4
9,23:5
9,24:2
9,25:5
9,26:5
9,27:2
9,30:6
9,31:6
9,32:6
9,34:6
10,2:5
10,3:5
10,4:4
10,5:5
10,6:5
10,7:5
10,8:5
10,9:3
10,11:4
10,13:4
10,17:5
10,19:7
10,20:7
11,5:1
11,6:1
11,7:1
11,8:1
11,9:1
11,10:4
11,12:4
11,14:4
11,15:3
11,16:1
11,17:1
11,18:4
11,19:3
11,20:3
11,21:1
11,22:1
11,23:4
11,24:1
11,25:4
11,26:4
11,27:1
11,28:1
11,30:5
11,31:5
11,32:5
11,33:5
11,34:5
12,2:5
12,3:5
12,4:4
12,5:5
12,6:5
12,7:5
12,8:5
12,9:3
12,11:4
12,13:4
12,15:7
12,16:3
12,17:5
13,2:1
13,3:1
13,7:1
13,10:4
13,12:4
13,14:4
13,15:3
13,16:1
13,17:1
13,18:4
13,19:3
13,20:3
13,21:1
13,22:1
13,23:4
13,24:1
13,25:4
13,26:4
13,27:1
13,28:1
13,30:5
13,31:5
13,32:5
13,33:5
13,34:5
14,2:5
14,3:5
14,4:4
14,8:5
14,9:3
14,11:4
14,13:4
14,15:7
14,17:5
14,19:7
14,20:7
15,2:2
15,3:2
15,4:3
15,8:2
15,9:4
15,11:3
15,12:7
15,13:3
15,16:4
15,17:2
15,18:7
16,2:2
16,3:2
16,4:1
16,8:2
16,11:1
16,12:3
16,13:1
16,17:2
16,18:3
16,19:4
16,20:4
17,4:1
17,9:2
17,10:5
17,11:1
17,12:5
17,13:1
17,14:5
17,15:2
17,16:2
17,18:5
17,19:2
17,20:2
18,2:5
18,3:5
18,4:4
18,8:5
18,9:3
18,11:4
18,13:4
18,15:7
18,16:3
18,17:5
18,19:7
19,2:2
19,3:2
19,4:3
19,8:2
19,9:4
19,10:7
19,11:3
19,13:3
19,14:7
19,16:4
19,17:2
20,2:2
20,3:2
20,4:3
20,8:2
20,9:4
20,10:7
20,11:3
20,13:3
20,14:7
20,16:4
20,21:4
21,2:2
21,3:2
21,4:1
21,8:2
21,11:1
21,13:1
21,25:5
21,30:6
22,2:2
22,3:2
22,4:1
22,8:2
22,11:1
22,13:1
22,23:5
22,25:5
22,26:5
22,30:6
22,31:6
22,32:6
23,2:3
23,3:3
23,4:4
23,8:3
23,9:5
23,11:4
23,13:4
23,24:3
23,30:1
23,31:1
23,32:1
24,4:1
24,9:2
24,11:1
24,13:1
24,25:3
24,26:3
24,30:4
24,31:4
24,32:4
25,2:3
25,3:3
25,4:4
25,8:3
25,9:5
25,11:4
25,13:4
25,22:5
25,24:3
25,30:1
25,31:1
25,32:1
26,2:3
26,3:3
26,4:4
26,8:3
26,9:5
26,11:4
26,13:4
26,22:5
26,24:3
26,27:3
26,30:1
26,31:1
26,32:1
27,4:1
27,9:2
27,11:1
27,13:1
27,30:4
27,31:4
27,32:4
27,33:4
27,34:4
28,29:4
28,30:4
28,31:4
28,32:4
28,33:4
28,34:4
28,35:4
30,2:4
30,3:4
30,4:5
30,8:4
30,9:6
30,11:5
30,13:5
30,22:6
30,23:1
30,24:4
30,25:1
30,26:1
30,27:4
30,28:4
31,2:4
31,3:4
31,4:5
31,8:4
31,9:6
31,11:5
31,13:5
31,22:6
31,23:1
31,24:4
31,25:1
31,26:1
31,27:4
31,28:4
32,2:4
32,3:4
32,4:5
32,8:4
32,9:6
32,11:5
32,13:5
32,22:6
32,23:1
32,24:4
32,25:1
32,26:1
32,27:4
32,28:4
33,28:4
34,2:4
34,3:4
34,4:5
34,8:4
34,9:6
34,11:5
34,13:5
34,28:4
35,28:4

<setup times backward>
1,1:1
1,17:1
2,1:1
2,2:1
2,5:1
2,6:1
2,7:1
2,8:1
2,15:3
2,17:1
2,19:3
2,20:3
2,23:4
2,24:1
2,25:4
2,26:4
2,27:1
2,30:5
2,31:5
2,32:5
2,34:5
3,1:1
3,2:1
3,3:1
3,5:1
3,6:1
3,7:1
3,8:1
3,15:3
3,17:1
3,19:3
3,20:3
3,23:4
3,24:1
3,25:4
3,26:4
3,27:1
3,30:5
3,31:5
3,32:5
3,34:5
4,1:2
4,2:2
4,3:2
4,4:1
4,5:2
4,6:2
4,7:2
4,8:2
4,13:1
4,15:4
4,17:2
4,19:4
4,20:4
4,23:5
4,24:2
4,25:5
4,26:5
4,27:2
4,30:6
4,31:6
4,32:6
4,34:6
5,1:1
5,2:1
5,3:1
5,5:1
5,17:1
6,1:1
6,2:1
6,3:1
6,5:1
6,6:1
6,17:1
7,1:1
7,2:1
7,3:1
7,5:1
7,6:1
7,7:1
7,8:1
7,17:1
8,1:1
8,2:1
8,3:1
8,5:1
8,6:1
8,7:1
8,8:1
8,15:3
8,17:1
8,19:3
8,20:3
8,23:4
8,24:1
8,25:4
8,26:4
8,27:1
8,30:5
8,31:5
8,32:5
8,34:5
9,1:3
9,2:3
9,3:3
9,4:2
9,5:3
9,6:3
9,7:3
9,8:3
9,9:1
9,11:2
9,15:5
9,16:1
9,17:3
9,19:5
9,20:5
9,21:1
9,22:1
9,23:6
9,24:3
9,25:6
9,26:6
9,27:3
9,30:7
9,31:7
9,32:7
9,34:7
10,1:6
10,2:6
10,3:6
10,4:5
10,5:6
10,6:6
10,7:6
10,8:6
10,9:4
10,10:1
10,11:5
10,12:1
10,13:5
10,17:6
10,18:1
10,19:8
10,20:8
11,1:2
11,2:2
11,3:2
11,4:1
11,5:2
11,6:2
11,7:2
11,8:2
11,11:1
11,13:1
11,15:4
11,17:2
11,19:4
11,20:4
11,23:5
11,24:2
11,25:5
11,26:5
11,27:2
11,30:6
11,31:6
11,32:6
11,34:6
12,1:6
12,2:6
12,3:6
12,4:5
12,5:6
12,6:6
12,7:6
12,8:6
12,9:4
12,10:1
12,11:5
12,12:1
12,13:5
12,14:1
12,15:8
12,16:4
12,17:6
13,1:2
13,2:2
13,3:2
13,4:1
13,5:2
13,6:2
13,7:2
13,8:2
13,11:1
13,13:1
13,15:4
13,17:2
13,19:4
13,20:4
13,23:5
13,24:2
13,25:5
13,26:5
13,27:2
13,30:6
13,31:6
13,32:6
13,34:6
14,1:6
14,2:6
14,3:6
14,4:5
14,5:6
14,6:6
14,7:6
14,8:6
14,9:4
14,10:1
14,11:5
14,12:1
14,13:5
14,14:1
14,17:6
14,18:1
14,19:8
14,20:8
15,15:1
15,19:1
15,20:1
16,1:3
16,2:3
16,3:3
16,4:2
16,5:3
16,6:3
16,7:3
16,8:3
16,9:1
16,11:2
16,13:2
16,15:5
16,16:1
16,17:3
16,19:5
16,20:5
17,1:1
17,2:1
17,3:1
17,5:1
17,6:1
17,7:1
17,8:1
17,15:3
17,17:1
17,19:3
18,1:6
18,2:6
18,3:6
18,4:5
18,5:6
18,6:6
18,7:6
18,8:6
18,9:4
18,10:1
18,11:5
18,12:1
18,13:5
18,14:1
18,15:8
18,16:4
18,17:6
18,18:1
19,15:1
19,19:1
20,15:1
20,19:1
20,20:1
21,1:3
21,2:3
21,3:3
21,4:2
21,5:3
21,6:3
21,7:3
21,8:3
21,9:1
21,11:2
21,13:2
21,15:5
21,16:1
21,17:3
21,19:5
21,20:5
21,21:1
22,1:3
22,2:3
22,3:3
22,4:2
22,5:3
22,6:3
22,7:3
22,8:3
22,9:1
22,11:2
22,13:2
22,15:5
22,16:1
22,17:3
22,19:5
22,20:5
22,21:1
22,22:1
22,25:6
22,26:6
22,30:7
22,31:7
22,32:7
23,23:1
23,25:1
23,26:1
23,30:2
23,31:2
23,32:2
24,1:1
24,2:1
24,3:1
24,5:1
24,6:1
24,7:1
24,8:1
24,15:3
24,17:1
24,19:3
24,20:3
24,23:4
24,24:1
24,25:4
24,26:4
24,30:5
24,31:5
24,32:5
25,23:1
25,25:1
25,30:2
25,31:2
25,32:2
26,23:1
26,25:1
26,26:1
26,30:2
26,31:2
26,32:2
27,1:1
27,2:1
27,3:1
27,5:1
27,6:1
27,7:1
27,8:1
27,15:3
27,17:1
27,19:3
27,20:3
27,23:4
27,24:1
27,25:4
27,26:4
27,27:1
27,30:5
27,31:5
27,32:5
28,1:1
28,2:1
28,3:1
28,5:1
28,6:1
28,7:1
28,8:1
28,15:3
28,17:1
28,19:3
28,20:3
28,23:4
28,24:1
28,25:4
28,26:4
28,27:1
28,28:1
28,30:5
28,31:5
28,32:5
28,33:5
28,34:5
28,35:5
29,29:1
29,30:1
29,31:1
29,32:1
29,33:1
29,34:1
29,35:1
30,29:1
30,30:1
30,34:1
31,29:1
31,30:1
31,31:1
31,34:1
32,29:1
32,30:1
32,31:1
32,32:1
32,34:1
33,29:1
33,30:1
33,31:1
33,32:1
33,33:1
33,34:1
34,29:1
34,30:1
34,31:1
34,32:1
34,33:1
34,34:1
34,35:1
35,29:1
35,30:1
35,31:1
35,32:1
35,33:1
35,34:1
35,35:1

<end>

<optimal SALBP-1 value>
8


<rand seed>
467321153

<Lower Bounds>
Lm1=7
Lms1=7
Lm2=2
Lm3=5
Lm4=8
Best=8

<Optimal Stations (Iterations: 10)>
10
